48 24 188 166 95 116 126 158 33 66 67 36 
4 169 149 77 5 181 8 193 141 64 30 
142 16 119 152 124 3 110 183 174 87 13 60 76 
200 171 130 150 143 21 29 107 73 146 39 148 
92 57 72 65 125 32 117 52 2 93 19 
43 102 184 190 182 86 108 50 121 123 11 157 
100 12 9 89 69 105 199 84 134 41 
54 37 28 46 172 159 44 145 91 82 97 
6 163 132 113 191 127 186 71 17 34 120 
180 15 27 98 147 23 38 192 194 115 154 
118 176 42 20 26 197 138 79 90 178 83 185 175 
133 195 139 173 56 85 112 168 94 109 70 
170 103 18 80 198 81 55 96 75 
162 63 47 136 131 156 40 129 74 135 
164 104 51 22 1 
155 128 177 160 99 151 53 106 
153 49 196 68 179 10 35 122 137 
167 7 61 31 114 101 
140 88 59 189 45 165 
25 14 58 
62 78 187 144 
161 111 

